Maximize
    1.4 a4 + 1.7 b3 + 2 c2 + 1.3 d5 + x5

Subject To
    R1: a1 + b1 + x1 = 10000
    R2: a2 + b2 + c2 + x2 - x1 = 0
    R3: a3 + b3 + x3 - 1.4 a1 - x2 = 0
    R4: a4 + x4 - 1.4 a2 - 1.7 b1 - x3 = 0
    R5: d5 + x5 - 1.4 a3 - 1.7 b2 - x4 = 0
    
Bounds
    a1 >= 0
    a2 >= 0
    a3 >= 0
    a4 >= 0
    a5 >= 0
    b1 >= 0
    b2 >= 0
    b3 >= 0
    b4 >= 0
    b5 >= 0
    c1 >= 0
    c2 >= 0
    c3 >= 0
    c4 >= 0
    c5 >= 0
    d1 >= 0
    d2 >= 0
    d3 >= 0
    d4 >= 0
    d5 >= 0
    x1 >= 0
    x2 >= 0
    x3 >= 0
    x4 >= 0
    x5 >= 0

End
